1 2
2 2
3 2
4 2
5 2
6 1
7 2
8 1
9 1
10 1
11 1
12 2
13 1
14 1
15 2
16 2
17 1
18 2
19 2
20 1
21 2
22 2
23 2
24 2
25 2
26 2
27 1
28 2
29 1
30 1
31 2
32 2
33 2
34 2
35 1
36 2
37 2
38 1
39 2
40 2
41 2
42 2
43 2
44 2
45 1
46 1
47 2
48 1
49 2
50 1
51 2
52 2
53 1
54 2
55 2
56 2
57 1
58 1
59 2
60 1
61 1
62 2
63 2
64 1
65 2
66 2
67 1
68 1
69 2
70 2
71 2
72 2
73 1
74 2
75 1
76 2
77 1
78 2
79 2
80 1
81 2
82 1
83 2
84 2
85 2
86 1
87 2
88 2
89 1
90 1
91 1
92 1
93 2
94 2
95 2
96 1
97 1
98 1
99 2
100 1
101 1
102 1
103 1
104 1
105 1
106 1
107 2
108 1
109 1
110 1
111 1
112 1
113 2
114 1
115 2
116 2
117 2
118 1
119 1
120 2
121 1
122 2
123 2
124 1
125 1
126 1
127 1
128 2
129 2
130 1
131 1
132 1
133 1
134 2
135 1
136 2
137 1
138 2
139 2
140 2
141 1
142 2
143 2
144 2
145 1
146 1
147 1
148 1
149 2
150 2
151 1
152 2
153 1
154 1
155 1
156 1
157 2
158 1
159 2
160 1
161 2
162 1
163 2
164 2
165 2
166 1
167 2
168 1
169 2
170 2
171 1
172 2
173 2
174 2
175 2
176 1
177 1
178 2
179 2
180 1
181 2
182 2
183 1
184 1
185 1
186 1
187 2
188 1
189 2
190 1
191 2
192 1
193 1
194 1
195 1
196 1
197 1
198 2
199 2
200 2
201 2
202 1
203 2
204 2
205 1
206 1
207 2
208 2
209 2
210 2
211 2
212 2
213 2
214 2
215 2
216 1
217 2
218 2
219 2
220 2
221 2
222 1
223 1
224 2
225 2
226 1
227 2
228 1
229 2
230 2
231 2
232 1
233 1
234 2
235 2
236 1
237 1
238 2
239 2
240 2
241 2
242 2
243 2
244 2
245 1
246 2
247 2
248 2
249 1
250 2
251 1
252 2
253 1
254 2
255 2
256 1
257 1
258 2
259 2
260 1
261 2
262 2
263 2
264 1
265 1
266 2
267 1
268 2
269 2
270 1
271 1
272 1
273 1
274 1
275 1
276 1
277 1
278 2
279 1
280 2
281 2
282 2
283 2
284 1
285 1
286 1
287 2
288 2
289 1
290 2
291 2
292 2
293 2
294 1
295 2
296 2
297 1
298 1
299 2
300 1
301 2
302 1
303 1
304 1
305 1
306 1
307 1
308 1
309 2
310 2
311 2
312 1
313 1
314 1
315 2
316 2
317 2
318 1
319 2
320 2
321 1
322 2
323 1
324 1
325 2
326 1
327 1
328 2
329 2
330 1
331 1
332 1
333 2
334 1
335 2
336 1
337 1
338 1
339 2
340 1
341 1
342 1
343 1
344 1
345 1
346 1
347 2
348 1
349 2
350 2
351 1
352 1
353 2
354 1
355 1
356 1
357 2
358 2
359 2
360 1
361 1
362 1
363 1
364 2
365 2
366 2
367 1
368 2
369 1
370 1
371 1
372 2
373 2
374 1
375 2
376 1
377 2
378 2
379 1
380 2
381 1
382 2
383 2
384 1
385 2
386 2
387 1
388 2
389 1
390 2
391 1
392 1
393 1
394 2
395 1
396 2
397 2
398 1
399 1
400 2
401 2
402 2
403 1
404 2
405 1
406 2
407 2
408 1
409 1
410 1
411 1
412 1
413 2
414 2
415 1
416 1
417 2
418 2
419 1
420 1
421 1
422 2
423 2
424 2
425 1
426 2
427 1
428 1
429 1
430 2
431 2
432 1
433 2
434 2
435 1
436 2
437 1
438 1
439 1
440 1
441 1
442 2
443 1
444 1
445 2
446 1
447 2
448 1
449 2
450 2
451 2
452 2
453 1
454 1
455 1
456 1
457 2
458 1
459 2
460 1
461 1
462 1
463 1
464 1
465 2
466 2
467 2
468 1
469 2
470 1
471 2
472 2
473 2
474 1
475 1
476 1
477 2
478 1
479 2
480 2
481 2
482 2
483 2
484 2
485 2
486 2
487 2
488 2
489 2
490 2
491 1
492 2
493 2
494 1
495 1
496 2
497 1
498 1
499 2
500 2
501 2
502 1
503 2
504 2
505 1
506 1
507 1
508 1
509 1
510 1
511 2
512 2
513 1
514 1
515 1
516 2
517 2
518 1
519 2
520 1
521 1
522 2
523 1
524 2
525 2
526 2
527 1
528 2
529 2
530 1
531 2
532 2
533 2
534 2
535 2
536 2
537 1
538 2
539 1
540 1
541 2
542 2
543 2
544 1
545 2
546 2
547 2
548 1
549 1
550 2
551 1
552 2
553 2
554 2
555 2
556 2
557 2
558 2
559 1
560 2
561 1
562 1
563 1
564 1
565 1
566 2
567 2
568 2
569 2
570 2
571 1
572 1
573 2
574 1
575 2
576 1
577 2
578 2
579 2
580 2
581 1
582 2
583 2
584 1
585 2
586 1
587 2
588 1
589 2
590 1
591 1
592 1
593 1
594 2
595 1
596 2
597 1
598 1
599 1
600 2
601 2
602 1
603 1
604 2
605 1
606 2
607 2
608 1
609 1
610 2
611 1
612 2
613 2
614 1
615 1
616 1
617 1
618 2
619 1
620 1
621 1
622 1
623 2
624 1
625 2
626 1
627 2
628 1
629 1
630 1
631 1
632 1
633 2
634 1
635 1
636 1
637 1
638 1
639 2
640 1
641 2
642 2
643 1
644 1
645 1
646 1
647 1
648 1
649 2
650 2
651 2
652 1
653 1
654 2
655 1
656 1
657 2
658 1
659 1
660 1
661 2
662 1
663 1
664 2
665 1
666 1
667 1
668 1
669 2
670 2
671 1
672 1
673 2
674 1
675 2
676 1
677 1
678 1
679 2
680 2
681 2
682 1
683 1
684 2
685 2
686 1
687 1
688 2
689 1
690 2
691 1
692 2
693 1
694 1
695 1
696 1
697 1
698 1
699 1
700 2
